NAME: temp6.png
TYPE: TSP
DIMENSION: 53
EDGE_WEIGHT_TYPE: EUC_2D
NODE_COORD_SECTION
1 59.5 21.5
2 93.5 21.5
3 567.5 21.5
4 532.5 22.5
5 92.5 55.5
6 126.5 55.5
7 567.5 55.5
8 601.5 55.5
9 126.5 89.5
10 364.5 224.5
11 398.5 224.5
12 873.5 224.5
13 837.5 225.5
14 1007.5 225.5
15 330.5 258.5
16 364.5 258.5
17 873.5 258.5
18 906.5 258.5
19 940.5 258.5
20 974.5 258.5
21 1008.5 258.5
22 296.5 292.5
23 330.5 292.5
24 940.5 292.5
25 974.5 292.5
26 261.5 326.5
27 295.5 326.5
28 58.5 360.5
29 92.5 360.5
30 126.5 360.5
31 261.5 360.5
32 668.5 360.5
33 703.5 360.5
34 736.5 360.5
35 24.5 394.5
36 58.5 394.5
37 92.5 394.5
38 600.5 394.5
39 634.5 394.5
40 668.5 394.5
41 24.5 428.5
42 58.5 428.5
43 91.5 428.5
44 125.5 428.5
45 261.5 428.5
46 295.5 428.5
47 464.5 428.5
48 498.5 428.5
49 432.5 461.5
50 466.5 461.5
51 125.5 462.5
52 295.5 462.5
53 329.5 462.5
EOF
